
Gurobi 11.0.0 (linux64) logging started Wed Apr 10 21:36:41 2024

Set parameter LogFile to value "/lustre1/scratch/348/vsc34888/JointResearch/05.Models/06.Benchmarking/B.Operation_cost/RTS24_ByStages_nc10/openStarNet_RTS24_ByStages_nc10.log"
Set parameter Method to value 2
Set parameter MIPFocus to value 1
Set parameter Presolve to value 2
Set parameter RINS to value 100
Set parameter MIPGap to value 0.01
Set parameter Threads to value 36
Set parameter TimeLimit to value 259200
Set parameter IterationLimit to value 760000000
Gurobi Optimizer version 11.0.0 build v11.0.0rc2 (linux64 - "Rocky Linux 8.8 (Green Obsidian)")

CPU model: Intel(R) Xeon(R) Gold 6140 CPU @ 2.30GHz, instruction set [SSE2|AVX|AVX2|AVX512]
Thread count: 36 physical cores, 36 logical processors, using up to 36 threads

Optimize a model with 3893 rows, 2391 columns and 10492 nonzeros
Model fingerprint: 0x0a2219cf
Variable types: 2361 continuous, 30 integer (30 binary)
Coefficient statistics:
  Matrix range     [3e-02, 2e+03]
  Objective range  [1e+00, 1e+00]
  Bounds range     [8e-04, 2e+00]
  RHS range        [8e-04, 2e+00]
Presolve removed 2089 rows and 1122 columns
Presolve time: 0.05s
Presolved: 1804 rows, 1269 columns, 6363 nonzeros
Variable types: 1239 continuous, 30 integer (30 binary)
Found heuristic solution: objective 317.9345006
Root relaxation presolve removed 2 rows and 2 columns
Root relaxation presolved: 1802 rows, 1267 columns, 6359 nonzeros

Root barrier log...

Ordering time: 0.03s

Barrier statistics:
 AA' NZ     : 3.373e+04
 Factor NZ  : 1.898e+05 (roughly 3 MB of memory)
 Factor Ops : 2.975e+07 (less than 1 second per iteration)
 Threads    : 36

                  Objective                Residual
Iter       Primal          Dual         Primal    Dual     Compl     Time
   0   2.26778694e+06 -4.13302630e+07  2.07e+01 1.22e+03  7.74e+04     0s
   1   6.08367738e+05 -2.55132450e+07  5.38e+00 3.34e+03  2.08e+04     0s
   2   3.62230046e+04 -9.72547377e+06  1.77e-01 3.12e+02  2.85e+03     0s
   3   1.97160661e+04 -6.82954336e+05  9.43e-03 4.59e-11  1.84e+02     0s
   4   6.32744867e+03 -1.02355070e+05  2.03e-06 1.81e-11  2.82e+01     0s
   5   1.88821425e+03 -2.06263980e+04  4.11e-07 7.28e-12  5.84e+00     0s
   6   7.25436637e+02 -4.90809819e+03  5.02e-08 3.64e-12  1.46e+00     0s
   7   5.00927267e+02 -1.00605487e+03  1.46e-08 3.64e-12  3.91e-01     0s
   8   3.04373240e+02 -5.90692145e+01  2.57e-09 3.64e-12  9.42e-02     0s
   9   2.70239338e+02  7.51876166e+01  1.62e-09 3.64e-12  5.05e-02     0s
  10   2.31869486e+02  1.42706070e+02  7.11e-10 3.64e-12  2.31e-02     0s
  11   2.09175336e+02  1.86279265e+02  1.66e-10 7.28e-12  5.93e-03     0s
  12   2.03927001e+02  1.97583056e+02  6.68e-11 7.28e-12  1.64e-03     0s
  13   2.01778650e+02  1.99461979e+02  2.48e-11 7.28e-12  6.00e-04     0s
  14   2.01153596e+02  2.00045998e+02  1.43e-11 1.82e-12  2.87e-04     0s
  15   2.00874666e+02  2.00275027e+02  8.10e-12 7.28e-12  1.55e-04     0s
  16   2.00625407e+02  2.00452910e+02  2.40e-11 7.28e-12  4.46e-05     0s
  17   2.00604067e+02  2.00488411e+02  1.98e-10 3.64e-12  2.99e-05     0s
  18   2.00537483e+02  2.00532307e+02  6.38e-10 7.28e-12  1.34e-06     0s
  19   2.00536482e+02  2.00536180e+02  2.46e-10 3.64e-12  7.81e-08     0s
  20   2.00536426e+02  2.00536405e+02  1.93e-10 7.28e-12  5.67e-09     0s
  21   2.00536425e+02  2.00536425e+02  6.64e-10 7.28e-12  7.91e-11     0s

Barrier solved model in 21 iterations and 0.46 seconds (0.07 work units)
Optimal objective 2.00536425e+02


Root relaxation: objective 2.005364e+02, 288 iterations, 0.29 seconds (0.05 work units)

    Nodes    |    Current Node    |     Objective Bounds      |     Work
 Expl Unexpl |  Obj  Depth IntInf | Incumbent    BestBd   Gap | It/Node Time

     0     0  200.53642    0   17  317.93450  200.53642  36.9%     -    0s
H    0     0                     283.4197131  203.14320  28.3%     -    0s
     0     0  203.14320    0   14  283.41971  203.14320  28.3%     -    0s
     0     0  203.15753    0   14  283.41971  203.15753  28.3%     -    0s
     0     0  203.70259    0   14  283.41971  203.70259  28.1%     -    0s
     0     0  203.89680    0   11  283.41971  203.89680  28.1%     -    0s
     0     0  203.89680    0   11  283.41971  203.89680  28.1%     -    0s
     0     0  206.46074    0   15  283.41971  206.46074  27.2%     -    0s
H    0     0                     264.2514441  206.46074  21.9%     -    0s
     0     0  206.46074    0   17  264.25144  206.46074  21.9%     -    0s
     0     0  206.46074    0   16  264.25144  206.46074  21.9%     -    0s
     0     0  206.46074    0   16  264.25144  206.46074  21.9%     -    0s
     0     0  206.83248    0   15  264.25144  206.83248  21.7%     -    0s
     0     0  206.83917    0   12  264.25144  206.83917  21.7%     -    0s
     0     0  206.83917    0   12  264.25144  206.83917  21.7%     -    0s
     0     0  207.63207    0   12  264.25144  207.63207  21.4%     -    0s
H    0     0                     262.9811473  207.63207  21.0%     -    0s
H    0     0                     242.6469841  207.63207  14.4%     -    1s
     0     2  207.63207    0   12  242.64698  207.63207  14.4%     -    1s
H   99   136                     241.4958643  210.60900  12.8%  54.2    2s
H  100   136                     237.7457713  210.60900  11.4%  54.9    2s
H  103   136                     237.6887931  210.72843  11.3%  54.3    2s
H  104   136                     234.7849326  210.72843  10.2%  54.4    2s
H  107   136                     234.4573622  210.72843  10.1%  54.6    2s
H  108   136                     234.1711093  210.72843  10.0%  54.5    2s
H  135   165                     233.4759962  210.72843  9.74%  51.0    3s
H  137   165                     233.3397449  210.72843  9.69%  51.5    3s
H  189   193                     233.3396606  210.78247  9.67%  49.9    3s
  1267   551     cutoff   14       233.33966  213.89165  8.33%  40.3    5s
  4091   830  229.75132   15    8  233.33966  221.13868  5.23%  35.0   10s
 11079   723  232.53648   16    5  233.33966  229.19273  1.78%  30.8   15s

Cutting planes:
  Gomory: 10
  Implied bound: 28
  MIR: 69
  Relax-and-lift: 2

Explored 13841 nodes (402124 simplex iterations) in 15.71 seconds (13.77 work units)
Thread count was 36 (of 36 available processors)

Solution count 10: 233.34 233.34 233.476 ... 242.647

Optimal solution found (tolerance 1.00e-02)
Best objective 2.333397449446e+02, best bound 2.321029938884e+02, gap 0.5300%

Gurobi 11.0.0 (linux64) logging started Wed Apr 10 21:36:57 2024

Set parameter LogFile to value "/lustre1/scratch/348/vsc34888/JointResearch/05.Models/06.Benchmarking/B.Operation_cost/RTS24_ByStages_nc10/openStarNet_RTS24_ByStages_nc10.log"
Set parameter Method to value 2
Set parameter MIPFocus to value 1
Set parameter Presolve to value 2
Set parameter RINS to value 100
Set parameter MIPGap to value 0.01
Set parameter Threads to value 36
Set parameter TimeLimit to value 259200
Set parameter IterationLimit to value 760000000
Gurobi Optimizer version 11.0.0 build v11.0.0rc2 (linux64 - "Rocky Linux 8.8 (Green Obsidian)")

CPU model: Intel(R) Xeon(R) Gold 6140 CPU @ 2.30GHz, instruction set [SSE2|AVX|AVX2|AVX512]
Thread count: 36 physical cores, 36 logical processors, using up to 36 threads

Optimize a model with 3893 rows, 2361 columns and 9262 nonzeros
Model fingerprint: 0xdd03513e
Coefficient statistics:
  Matrix range     [3e-02, 2e+03]
  Objective range  [1e+00, 1e+00]
  Bounds range     [8e-04, 2e+00]
  RHS range        [8e-04, 4e+01]
Presolve removed 3316 rows and 1372 columns
Presolve time: 0.01s
Presolved: 577 rows, 1002 columns, 2547 nonzeros

Ordering time: 0.00s

Barrier statistics:
 AA' NZ     : 1.336e+03
 Factor NZ  : 4.512e+03
 Factor Ops : 6.179e+04 (less than 1 second per iteration)
 Threads    : 1

                  Objective                Residual
Iter       Primal          Dual         Primal    Dual     Compl     Time
   0   2.90320897e+06 -3.39758274e+07  1.07e+01 1.61e+04  2.48e+05     0s
   1   1.76906318e+05 -2.47162125e+07  5.60e-01 1.30e-10  2.59e+04     0s
   2   6.20396270e+04 -5.30542144e+06  1.28e-01 3.14e-10  4.29e+03     0s
   3   3.16893851e+04 -5.69715797e+05  5.78e-05 1.16e-10  3.87e+02     0s
   4   1.67400867e+04 -7.00136336e+04  3.19e-08 1.16e-10  5.58e+01     0s
   5   6.88553774e+03 -2.59813986e+04  8.41e-09 2.91e-11  2.11e+01     0s
   6   2.27112673e+03 -3.57376606e+03  2.07e-09 1.46e-11  3.76e+00     0s
   7   6.38565749e+02 -2.26928065e+03  1.94e-10 2.91e-11  1.87e+00     0s
   8   3.93958077e+02 -1.78631761e+02  1.66e-11 1.46e-11  3.68e-01     0s
   9   2.96888980e+02  9.15790128e+01  5.54e-12 1.46e-11  1.32e-01     0s
  10   2.58728957e+02  1.89274145e+02  1.76e-12 1.46e-11  4.47e-02     0s
  11   2.41947426e+02  2.23367091e+02  5.07e-13 5.82e-11  1.20e-02     0s
  12   2.34827319e+02  2.31445178e+02  1.06e-12 2.91e-11  2.18e-03     0s
  13   2.33359432e+02  2.33155072e+02  2.86e-12 2.91e-11  1.32e-04     0s
  14   2.33340133e+02  2.33339232e+02  4.51e-12 2.18e-11  5.80e-07     0s
  15   2.33339745e+02  2.33339744e+02  9.60e-13 1.46e-11  5.80e-10     0s
  16   2.33339745e+02  2.33339745e+02  3.40e-12 2.91e-11  7.63e-16     0s

Barrier solved model in 16 iterations and 0.02 seconds (0.01 work units)
Optimal objective 2.33339745e+02

Crossover log...

     109 DPushes remaining with DInf 0.0000000e+00                 0s
       0 DPushes remaining with DInf 0.0000000e+00                 0s

      37 PPushes remaining with PInf 0.0000000e+00                 0s
       0 PPushes remaining with PInf 0.0000000e+00                 0s

  Push phase complete: Pinf 0.0000000e+00, Dinf 2.6241301e-12      0s

Iteration    Objective       Primal Inf.    Dual Inf.      Time
      42    2.3333974e+02   0.000000e+00   0.000000e+00      0s

Use crossover to convert LP symmetric solution to basic solution...
Crossover log...

       0 DPushes remaining with DInf 0.0000000e+00                 0s

      21 PPushes remaining with PInf 0.0000000e+00                 0s
       0 PPushes remaining with PInf 0.0000000e+00                 0s

  Push phase complete: Pinf 0.0000000e+00, Dinf 1.1619872e-12      0s

Iteration    Objective       Primal Inf.    Dual Inf.      Time
      68    2.3333974e+02   0.000000e+00   0.000000e+00      0s

Solved in 68 iterations and 0.02 seconds (0.01 work units)
Optimal objective  2.333397449e+02
